; CALLER PUSH cw_4 DUP2 => CALLER PUSH cw_4 CALLER
(set-option :produce-proofs true)
; 
(set-info :status unknown)
(declare-fun storage_t ((_ BitVec 256) (_ BitVec 256) Int (_ BitVec 256)) (_ BitVec 256))
(declare-fun w_4 () (_ BitVec 256))
(declare-fun storage_s ((_ BitVec 256) (_ BitVec 256) Int (_ BitVec 256)) (_ BitVec 256))
(declare-fun exc_halt_t (Int) Bool)
(declare-fun exc_halt_s (Int) Bool)
(declare-fun stack_t ((_ BitVec 256) (_ BitVec 256) Int (_ BitVec 6)) (_ BitVec 256))
(declare-fun stack_s ((_ BitVec 256) (_ BitVec 256) Int (_ BitVec 6)) (_ BitVec 256))
(declare-fun sc_t (Int) (_ BitVec 6))
(declare-fun sc_s (Int) (_ BitVec 6))
(declare-fun used_gas_t ((_ BitVec 256) (_ BitVec 256) Int) Int)
(declare-fun used_gas_s ((_ BitVec 256) (_ BitVec 256) Int) Int)
(assert
 (exists ((x_CALLER (_ BitVec 256)) )(let (($x7678 (forall ((w (_ BitVec 256)) )(let ((?x2931 (storage_t w_4 x_CALLER 3 w)))
 (let ((?x9314 (storage_s w_4 x_CALLER 3 w)))
 (= ?x9314 ?x2931))))
 ))
 (let (($x6783 (exc_halt_t 3)))
 (let (($x292 (exc_halt_s 3)))
 (let (($x5602 (= $x292 $x6783)))
 (let (($x866 (forall ((n (_ BitVec 6)) )(let ((?x9866 (stack_t w_4 x_CALLER 3 n)))
 (let ((?x7581 (stack_s w_4 x_CALLER 3 n)))
 (let (($x7447 (= ?x7581 ?x9866)))
 (let ((?x6438 (sc_t 3)))
 (let (($x2477 (bvsle ?x6438 n)))
 (or $x2477 $x7447)))))))
 ))
 (let ((?x6438 (sc_t 3)))
 (let ((?x275 (sc_s 3)))
 (let (($x7243 (= ?x275 ?x6438)))
 (let ((?x6553 (used_gas_t w_4 x_CALLER 0)))
 (let ((?x4317 (used_gas_s w_4 x_CALLER 0)))
 (let (($x343 (= ?x4317 ?x6553)))
 (let (($x11751 (forall ((w (_ BitVec 256)) )(let ((?x7337 (storage_t w_4 x_CALLER 0 w)))
 (let ((?x3048 (storage_s w_4 x_CALLER 0 w)))
 (= ?x3048 ?x7337))))
 ))
 (let (($x56 (exc_halt_t 0)))
 (let (($x57 (exc_halt_s 0)))
 (let (($x58 (= $x57 $x56)))
 (let (($x3837 (forall ((n (_ BitVec 6)) )(let ((?x63 (sc_t 0)))
 (let (($x11783 (bvsle ?x63 n)))
 (let ((?x8381 (stack_t w_4 x_CALLER 0 n)))
 (let ((?x3611 (stack_s w_4 x_CALLER 0 n)))
 (let (($x2473 (= ?x3611 ?x8381)))
 (or $x2473 $x11783)))))))
 ))
 (let ((?x63 (sc_t 0)))
 (let ((?x72 (sc_s 0)))
 (let (($x73 (= ?x72 ?x63)))
 (let (($x7871 (not (= ((_ extract 6 6) (bvadd (_ bv1 7) (concat (_ bv0 1) (sc_t 2)))) (_ bv0 1)))))
 (let (($x5252 (exc_halt_t 2)))
 (let (($x8589 (= $x6783 (or $x5252 $x7871))))
 (let (($x11499 (forall ((w (_ BitVec 256)) )(let ((?x5163 (storage_t w_4 x_CALLER 2 w)))
 (let ((?x2931 (storage_t w_4 x_CALLER 3 w)))
 (= ?x2931 ?x5163))))
 ))
 (let (($x5172 (forall ((n (_ BitVec 6)) )(let ((?x2714 (sc_t 2)))
 (let (($x169 (bvsle ?x2714 n)))
 (or $x169 (= (stack_t w_4 x_CALLER 3 n) (stack_t w_4 x_CALLER 2 n))))))
 ))
 (let (($x708 (= ?x6438 (bvadd (_ bv1 6) (sc_t 2)))))
 (let (($x10865 (= (used_gas_t w_4 x_CALLER 3) (+ 2 (used_gas_t w_4 x_CALLER 2)))))
 (let (($x6748 (not (= ((_ extract 6 6) (bvadd (_ bv1 7) (concat (_ bv0 1) (sc_t 1)))) (_ bv0 1)))))
 (let (($x3508 (exc_halt_t 1)))
 (let (($x510 (= $x5252 (or $x3508 $x6748))))
 (let (($x8495 (forall ((w (_ BitVec 256)) )(let ((?x11299 (storage_t w_4 x_CALLER 1 w)))
 (let ((?x5163 (storage_t w_4 x_CALLER 2 w)))
 (= ?x5163 ?x11299))))
 ))
 (let (($x398 (forall ((n (_ BitVec 6)) )(let ((?x8347 (sc_t 1)))
 (let (($x11298 (bvsle ?x8347 n)))
 (or (= (stack_t w_4 x_CALLER 2 n) (stack_t w_4 x_CALLER 1 n)) $x11298))))
 ))
 (let ((?x2714 (sc_t 2)))
 (let (($x995 (= ?x2714 (bvadd (_ bv1 6) (sc_t 1)))))
 (let ((?x11663 (used_gas_t w_4 x_CALLER 2)))
 (let (($x5562 (= $x3508 (or $x56 (not (= ((_ extract 6 6) (bvadd (_ bv1 7) (concat (_ bv0 1) ?x63))) (_ bv0 1)))))))
 (let (($x2412 (forall ((w (_ BitVec 256)) )(let ((?x7337 (storage_t w_4 x_CALLER 0 w)))
 (let ((?x11299 (storage_t w_4 x_CALLER 1 w)))
 (= ?x11299 ?x7337))))
 ))
 (let (($x2347 (forall ((n (_ BitVec 6)) )(let ((?x63 (sc_t 0)))
 (let (($x11783 (bvsle ?x63 n)))
 (or (= (stack_t w_4 x_CALLER 1 n) (stack_t w_4 x_CALLER 0 n)) $x11783))))
 ))
 (let ((?x8347 (sc_t 1)))
 (let (($x934 (= ?x8347 (bvadd (_ bv1 6) ?x63))))
 (let (($x9576 (not (bvsle (_ bv0 6) (bvadd (_ bv62 6) (sc_s 2))))))
 (let (($x7562 (not (= ((_ extract 6 6) (bvadd (_ bv1 7) (concat (_ bv0 1) (sc_s 2)))) (_ bv0 1)))))
 (let (($x247 (exc_halt_s 2)))
 (let (($x9921 (forall ((w (_ BitVec 256)) )(let ((?x9643 (storage_s w_4 x_CALLER 2 w)))
 (let ((?x9314 (storage_s w_4 x_CALLER 3 w)))
 (= ?x9314 ?x9643))))
 ))
 (let (($x7548 (forall ((n (_ BitVec 6)) )(let ((?x218 (sc_s 2)))
 (let ((?x798 (bvadd (_ bv62 6) ?x218)))
 (let (($x4109 (bvsle ?x798 n)))
 (or $x4109 (= (stack_s w_4 x_CALLER 3 n) (stack_s w_4 x_CALLER 2 n)))))))
 ))
 (let (($x11614 (= ?x275 (bvadd (_ bv1 6) (sc_s 2)))))
 (let (($x4069 (= (used_gas_s w_4 x_CALLER 3) (+ 3 (used_gas_s w_4 x_CALLER 2)))))
 (let (($x11216 (= (stack_s w_4 x_CALLER 3 (bvadd (_ bv63 6) (sc_s 2))) (stack_s w_4 x_CALLER 2 (bvadd (_ bv63 6) (sc_s 2))))))
 (let ((?x218 (sc_s 2)))
 (let ((?x798 (bvadd (_ bv62 6) ?x218)))
 (let ((?x6382 (stack_s w_4 x_CALLER 2 ?x798)))
 (let (($x8177 (not (= ((_ extract 6 6) (bvadd (_ bv1 7) (concat (_ bv0 1) (sc_s 1)))) (_ bv0 1)))))
 (let (($x189 (exc_halt_s 1)))
 (let (($x7427 (= $x247 (or $x189 $x8177))))
 (let (($x5435 (forall ((w (_ BitVec 256)) )(let ((?x5534 (storage_s w_4 x_CALLER 1 w)))
 (let ((?x9643 (storage_s w_4 x_CALLER 2 w)))
 (= ?x9643 ?x5534))))
 ))
 (let (($x8748 (forall ((n (_ BitVec 6)) )(let ((?x154 (sc_s 1)))
 (let (($x11447 (bvsle ?x154 n)))
 (or (= (stack_s w_4 x_CALLER 2 n) (stack_s w_4 x_CALLER 1 n)) $x11447))))
 ))
 (let (($x9548 (= ?x218 (bvadd (_ bv1 6) (sc_s 1)))))
 (let ((?x2954 (used_gas_s w_4 x_CALLER 2)))
 (let (($x613 (= $x189 (or $x57 (not (= ((_ extract 6 6) (bvadd (_ bv1 7) (concat (_ bv0 1) ?x72))) (_ bv0 1)))))))
 (let (($x11801 (forall ((w (_ BitVec 256)) )(let ((?x3048 (storage_s w_4 x_CALLER 0 w)))
 (let ((?x5534 (storage_s w_4 x_CALLER 1 w)))
 (= ?x5534 ?x3048))))
 ))
 (let (($x647 (forall ((n (_ BitVec 6)) )(let ((?x72 (sc_s 0)))
 (let (($x7436 (bvsle ?x72 n)))
 (or (= (stack_s w_4 x_CALLER 1 n) (stack_s w_4 x_CALLER 0 n)) $x7436))))
 ))
 (let ((?x154 (sc_s 1)))
 (let (($x10536 (= ?x154 (bvadd (_ bv1 6) ?x72))))
 (let (($x7794 (forall ((w (_ BitVec 256)) )(let ((?x3048 (storage_s w_4 x_CALLER 0 w)))
 (= ?x3048 (_ bv0 256))))
 ))
 (let (($x3963 (= ?x4317 0)))
 (let (($x3095 (not $x57)))
 (let (($x4555 (= ?x72 (_ bv0 6))))
 (and $x4555 $x3095 $x3963 $x7794 (= (stack_s w_4 x_CALLER 1 ?x72) x_CALLER) (= (used_gas_s w_4 x_CALLER 1) (+ 2 ?x4317)) $x10536 $x647 $x11801 $x613 (= (stack_s w_4 x_CALLER 2 ?x154) w_4) (= ?x2954 (+ 3 (used_gas_s w_4 x_CALLER 1))) $x9548 $x8748 $x5435 $x7427 (= (stack_s w_4 x_CALLER 3 (bvadd (_ bv63 6) ?x275)) ?x6382) (= (stack_s w_4 x_CALLER 3 ?x798) ?x6382) $x11216 $x4069 $x11614 $x7548 $x9921 (= $x292 (or $x247 $x7562 $x9576)) (= (stack_t w_4 x_CALLER 1 ?x63) x_CALLER) (= (used_gas_t w_4 x_CALLER 1) (+ 2 ?x6553)) $x934 $x2347 $x2412 $x5562 (= (stack_t w_4 x_CALLER 2 ?x8347) w_4) (= ?x11663 (+ 3 (used_gas_t w_4 x_CALLER 1))) $x995 $x398 $x8495 $x510 (= (stack_t w_4 x_CALLER 3 ?x2714) x_CALLER) $x10865 $x708 $x5172 $x11499 $x8589 $x73 $x3837 $x58 $x11751 $x343 (not (and $x7243 $x866 $x5602 $x7678))))))))))))))))))))))))))))))))))))))))))))))))))))))))))))))))))))))
 )
(check-sat)
(get-proof)
